c colouring generated by benchmark framework
p edge 500 12458
v 1 12
v 2 9
v 3 4
v 4 10
v 5 8
v 6 14
v 7 12
v 8 13
v 9 13
v 10 13
v 11 0
v 12 14
v 13 3
v 14 6
v 15 10
v 16 2
v 17 8
v 18 3
v 19 4
v 20 10
v 21 4
v 22 4
v 23 0
v 24 3
v 25 5
v 26 8
v 27 11
v 28 15
v 29 1
v 30 16
v 31 5
v 32 11
v 33 6
v 34 9
v 35 13
v 36 8
v 37 11
v 38 8
v 39 2
v 40 8
v 41 1
v 42 3
v 43 3
v 44 10
v 45 15
v 46 9
v 47 1
v 48 13
v 49 11
v 50 1
v 51 2
v 52 7
v 53 5
v 54 5
v 55 4
v 56 1
v 57 0
v 58 3
v 59 14
v 60 7
v 61 7
v 62 14
v 63 4
v 64 13
v 65 11
v 66 5
v 67 2
v 68 12
v 69 8
v 70 0
v 71 11
v 72 8
v 73 15
v 74 3
v 75 5
v 76 6
v 77 15
v 78 10
v 79 9
v 80 7
v 81 2
v 82 0
v 83 12
v 84 7
v 85 16
v 86 6
v 87 15
v 88 15
v 89 1
v 90 6
v 91 8
v 92 4
v 93 12
v 94 8
v 95 15
v 96 5
v 97 1
v 98 2
v 99 4
v 100 7
v 101 0
v 102 2
v 103 11
v 104 4
v 105 11
v 106 7
v 107 13
v 108 7
v 109 16
v 110 6
v 111 16
v 112 5
v 113 3
v 114 3
v 115 6
v 116 11
v 117 16
v 118 2
v 119 2
v 120 6
v 121 5
v 122 5
v 123 9
v 124 10
v 125 13
v 126 0
v 127 5
v 128 16
v 129 11
v 130 0
v 131 8
v 132 16
v 133 13
v 134 9
v 135 3
v 136 14
v 137 9
v 138 14
v 139 8
v 140 4
v 141 8
v 142 1
v 143 12
v 144 12
v 145 4
v 146 6
v 147 3
v 148 9
v 149 10
v 150 1
v 151 0
v 152 5
v 153 1
v 154 15
v 155 4
v 156 16
v 157 7
v 158 8
v 159 3
v 160 13
v 161 0
v 162 3
v 163 7
v 164 0
v 165 5
v 166 6
v 167 0
v 168 1
v 169 13
v 170 4
v 171 12
v 172 7
v 173 16
v 174 14
v 175 10
v 176 12
v 177 11
v 178 13
v 179 6
v 180 11
v 181 1
v 182 8
v 183 5
v 184 7
v 185 11
v 186 9
v 187 15
v 188 2
v 189 1
v 190 16
v 191 7
v 192 7
v 193 10
v 194 6
v 195 16
v 196 2
v 197 14
v 198 4
v 199 10
v 200 9
v 201 3
v 202 8
v 203 2
v 204 3
v 205 16
v 206 12
v 207 14
v 208 14
v 209 7
v 210 13
v 211 10
v 212 8
v 213 8
v 214 9
v 215 7
v 216 0
v 217 6
v 218 2
v 219 10
v 220 12
v 221 11
v 222 16
v 223 9
v 224 13
v 225 2
v 226 10
v 227 9
v 228 9
v 229 8
v 230 8
v 231 12
v 232 9
v 233 10
v 234 7
v 235 6
v 236 3
v 237 11
v 238 3
v 239 4
v 240 1
v 241 16
v 242 12
v 243 15
v 244 1
v 245 13
v 246 3
v 247 6
v 248 11
v 249 14
v 250 13
v 251 7
v 252 15
v 253 6
v 254 7
v 255 2
v 256 8
v 257 11
v 258 1
v 259 15
v 260 0
v 261 12
v 262 1
v 263 13
v 264 16
v 265 1
v 266 5
v 267 0
v 268 0
v 269 4
v 270 11
v 271 8
v 272 16
v 273 13
v 274 16
v 275 12
v 276 3
v 277 6
v 278 13
v 279 0
v 280 4
v 281 2
v 282 12
v 283 4
v 284 2
v 285 13
v 286 5
v 287 16
v 288 15
v 289 0
v 290 4
v 291 8
v 292 11
v 293 4
v 294 5
v 295 1
v 296 16
v 297 13
v 298 13
v 299 2
v 300 14
v 301 13
v 302 15
v 303 15
v 304 12
v 305 1
v 306 6
v 307 3
v 308 0
v 309 8
v 310 15
v 311 16
v 312 8
v 313 4
v 314 11
v 315 13
v 316 12
v 317 12
v 318 13
v 319 12
v 320 7
v 321 4
v 322 12
v 323 0
v 324 7
v 325 6
v 326 10
v 327 9
v 328 4
v 329 6
v 330 4
v 331 0
v 332 15
v 333 5
v 334 3
v 335 15
v 336 2
v 337 5
v 338 12
v 339 8
v 340 12
v 341 13
v 342 12
v 343 0
v 344 9
v 345 9
v 346 14
v 347 5
v 348 10
v 349 1
v 350 2
v 351 1
v 352 12
v 353 7
v 354 13
v 355 16
v 356 11
v 357 3
v 358 11
v 359 0
v 360 7
v 361 5
v 362 1
v 363 11
v 364 5
v 365 10
v 366 9
v 367 15
v 368 10
v 369 3
v 370 14
v 371 14
v 372 0
v 373 14
v 374 8
v 375 5
v 376 9
v 377 5
v 378 6
v 379 14
v 380 2
v 381 14
v 382 5
v 383 15
v 384 14
v 385 15
v 386 0
v 387 2
v 388 9
v 389 3
v 390 13
v 391 0
v 392 10
v 393 3
v 394 9
v 395 0
v 396 11
v 397 16
v 398 2
v 399 1
v 400 4
v 401 10
v 402 9
v 403 6
v 404 6
v 405 11
v 406 2
v 407 6
v 408 14
v 409 3
v 410 10
v 411 9
v 412 8
v 413 2
v 414 4
v 415 7
v 416 2
v 417 7
v 418 6
v 419 9
v 420 7
v 421 5
v 422 3
v 423 4
v 424 8
v 425 4
v 426 14
v 427 1
v 428 10
v 429 0
v 430 7
v 431 14
v 432 3
v 433 5
v 434 5
v 435 15
v 436 0
v 437 6
v 438 2
v 439 11
v 440 4
v 441 6
v 442 13
v 443 12
v 444 6
v 445 10
v 446 4
v 447 0
v 448 1
v 449 3
v 450 2
v 451 13
v 452 5
v 453 2
v 454 3
v 455 2
v 456 10
v 457 6
v 458 8
v 459 13
v 460 1
v 461 13
v 462 14
v 463 9
v 464 14
v 465 2
v 466 4
v 467 12
v 468 10
v 469 10
v 470 16
v 471 0
v 472 6
v 473 10
v 474 13
v 475 9
v 476 16
v 477 1
v 478 3
v 479 3
v 480 5
v 481 12
v 482 2
v 483 11
v 484 4
v 485 0
v 486 1
v 487 7
v 488 8
v 489 2
v 490 13
v 491 5
v 492 11
v 493 7
v 494 16
v 495 10
v 496 3
v 497 2
v 498 7
v 499 9
v 500 7
